&DOS
  outdir = '/home/hafidz/Documents/PKL/Kalkulasi-DFT/Project-Shift-Current-Multi-Weyl-Semimetal/Cr2HgSe4/Primitive-2/outdir'
  prefix = 'Cr2HgSe4-SC-Project-2'
  fildos='Cr2HgSe4-SC-SC-Project-2.DOS.dat'
  emin= -4
  emax= 20
/
