# BERRY
###############
berry        = true
berry_task   = sc
berry_kmesh  = 100 100 100
fermi_energy = 8.0455

kubo_freq_min  =   0.0
kubo_freq_max  =   10.0
kubo_freq_step =  0.03
kubo_adpt_smr  =   true

sc_eta        = 0.040
sc_phase_conv =2
###############


# W90
###############
num_bands         =   120
num_wann          =   40

num_iter          = 1000
num_print_cycles  = 40

dis_win_max       =  24.0d0
dis_froz_max      =  14.0d0

dis_num_iter      =  1200
dis_mix_ratio     =  1.d0


#restart = wannierise

#restart = plot

bands_plot : true
bands_num_points  : 151
bands_plot_format : gnuplot

exclude_bands :  1-5

begin unit_cell_cart
Ang
 2.226296 6.296917 3.856058
 2.226296 6.296917 -3.856058
-4.452593 6.296917 0.000000
end unit_cell_cart

#reciprocal lattice units
Begin Kpoint_Path
G    0.0   0.0   0.0   U    0.625 0.25  0.625
X    0.5   0.0   0.5   W    0.5   0.25  0.75
W    0.5   0.25  0.75  L    0.5   0.5   0.5
K    0.375 0.375 0.75  K    0.375 0.375 0.75
G    0.0   0.0   0.0   U    0.625 0.25  0.625
L    0.5   0.5   0.5   X    0.5   0.0   0.5
End Kpoint_Path

begin projections

end projections


begin atoms_frac
Cr            0.8750000000        0.3750000000        0.3750000000
Cr            0.3750000000        0.3750000000        0.8750000000
Cr            0.3750000000        0.3750000000        0.3750000000
Cr            0.3750000000        0.8750000000        0.3750000000
Hg           -0.0000001544       -0.0000001544       -0.0000006865
Hg            0.7500001544        0.7500001544        0.7500006865
Se            0.5734582470        0.1421804918        0.1421805390
Se            0.1421805607        0.1421805607        0.5734580620
Se            0.1765417530        0.6078195082        0.6078194610
Se            0.1421804918        0.5734582470        0.1421805390
Se            0.1421804598        0.1421804598        0.1421803994
Se            0.6078195082        0.1765417530        0.6078194610
Se            0.6078195402        0.6078195402        0.6078196006
Se            0.6078194393        0.6078194393        0.1765419380
end atoms_frac

mp_grid : 10 10 10


begin kpoints
0.0 0.0 0.0
0.0 0.0 0.1
0.0 0.0 0.2
0.0 0.0 0.3
0.0 0.0 0.4
0.0 0.0 0.5
0.0 0.0 0.6
0.0 0.0 0.7
0.0 0.0 0.8
0.0 0.0 0.9
0.0 0.1 0.0
0.0 0.1 0.1
0.0 0.1 0.2
0.0 0.1 0.3
0.0 0.1 0.4
0.0 0.1 0.5
0.0 0.1 0.6
0.0 0.1 0.7
0.0 0.1 0.8
0.0 0.1 0.9
0.0 0.2 0.0
0.0 0.2 0.1
0.0 0.2 0.2
0.0 0.2 0.3
0.0 0.2 0.4
0.0 0.2 0.5
0.0 0.2 0.6
0.0 0.2 0.7
0.0 0.2 0.8
0.0 0.2 0.9
0.0 0.3 0.0
0.0 0.3 0.1
0.0 0.3 0.2
0.0 0.3 0.3
0.0 0.3 0.4
0.0 0.3 0.5
0.0 0.3 0.6
0.0 0.3 0.7
0.0 0.3 0.8
0.0 0.3 0.9
0.0 0.4 0.0
0.0 0.4 0.1
0.0 0.4 0.2
0.0 0.4 0.3
0.0 0.4 0.4
0.0 0.4 0.5
0.0 0.4 0.6
0.0 0.4 0.7
0.0 0.4 0.8
0.0 0.4 0.9
0.0 0.5 0.0
0.0 0.5 0.1
0.0 0.5 0.2
0.0 0.5 0.3
0.0 0.5 0.4
0.0 0.5 0.5
0.0 0.5 0.6
0.0 0.5 0.7
0.0 0.5 0.8
0.0 0.5 0.9
0.0 0.6 0.0
0.0 0.6 0.1
0.0 0.6 0.2
0.0 0.6 0.3
0.0 0.6 0.4
0.0 0.6 0.5
0.0 0.6 0.6
0.0 0.6 0.7
0.0 0.6 0.8
0.0 0.6 0.9
0.0 0.7 0.0
0.0 0.7 0.1
0.0 0.7 0.2
0.0 0.7 0.3
0.0 0.7 0.4
0.0 0.7 0.5
0.0 0.7 0.6
0.0 0.7 0.7
0.0 0.7 0.8
0.0 0.7 0.9
0.0 0.8 0.0
0.0 0.8 0.1
0.0 0.8 0.2
0.0 0.8 0.3
0.0 0.8 0.4
0.0 0.8 0.5
0.0 0.8 0.6
0.0 0.8 0.7
0.0 0.8 0.8
0.0 0.8 0.9
0.0 0.9 0.0
0.0 0.9 0.1
0.0 0.9 0.2
0.0 0.9 0.3
0.0 0.9 0.4
0.0 0.9 0.5
0.0 0.9 0.6
0.0 0.9 0.7
0.0 0.9 0.8
0.0 0.9 0.9
0.1 0.0 0.0
0.1 0.0 0.1
0.1 0.0 0.2
0.1 0.0 0.3
0.1 0.0 0.4
0.1 0.0 0.5
0.1 0.0 0.6
0.1 0.0 0.7
0.1 0.0 0.8
0.1 0.0 0.9
0.1 0.1 0.0
0.1 0.1 0.1
0.1 0.1 0.2
0.1 0.1 0.3
0.1 0.1 0.4
0.1 0.1 0.5
0.1 0.1 0.6
0.1 0.1 0.7
0.1 0.1 0.8
0.1 0.1 0.9
0.1 0.2 0.0
0.1 0.2 0.1
0.1 0.2 0.2
0.1 0.2 0.3
0.1 0.2 0.4
0.1 0.2 0.5
0.1 0.2 0.6
0.1 0.2 0.7
0.1 0.2 0.8
0.1 0.2 0.9
0.1 0.3 0.0
0.1 0.3 0.1
0.1 0.3 0.2
0.1 0.3 0.3
0.1 0.3 0.4
0.1 0.3 0.5
0.1 0.3 0.6
0.1 0.3 0.7
0.1 0.3 0.8
0.1 0.3 0.9
0.1 0.4 0.0
0.1 0.4 0.1
0.1 0.4 0.2
0.1 0.4 0.3
0.1 0.4 0.4
0.1 0.4 0.5
0.1 0.4 0.6
0.1 0.4 0.7
0.1 0.4 0.8
0.1 0.4 0.9
0.1 0.5 0.0
0.1 0.5 0.1
0.1 0.5 0.2
0.1 0.5 0.3
0.1 0.5 0.4
0.1 0.5 0.5
0.1 0.5 0.6
0.1 0.5 0.7
0.1 0.5 0.8
0.1 0.5 0.9
0.1 0.6 0.0
0.1 0.6 0.1
0.1 0.6 0.2
0.1 0.6 0.3
0.1 0.6 0.4
0.1 0.6 0.5
0.1 0.6 0.6
0.1 0.6 0.7
0.1 0.6 0.8
0.1 0.6 0.9
0.1 0.7 0.0
0.1 0.7 0.1
0.1 0.7 0.2
0.1 0.7 0.3
0.1 0.7 0.4
0.1 0.7 0.5
0.1 0.7 0.6
0.1 0.7 0.7
0.1 0.7 0.8
0.1 0.7 0.9
0.1 0.8 0.0
0.1 0.8 0.1
0.1 0.8 0.2
0.1 0.8 0.3
0.1 0.8 0.4
0.1 0.8 0.5
0.1 0.8 0.6
0.1 0.8 0.7
0.1 0.8 0.8
0.1 0.8 0.9
0.1 0.9 0.0
0.1 0.9 0.1
0.1 0.9 0.2
0.1 0.9 0.3
0.1 0.9 0.4
0.1 0.9 0.5
0.1 0.9 0.6
0.1 0.9 0.7
0.1 0.9 0.8
0.1 0.9 0.9
0.2 0.0 0.0
0.2 0.0 0.1
0.2 0.0 0.2
0.2 0.0 0.3
0.2 0.0 0.4
0.2 0.0 0.5
0.2 0.0 0.6
0.2 0.0 0.7
0.2 0.0 0.8
0.2 0.0 0.9
0.2 0.1 0.0
0.2 0.1 0.1
0.2 0.1 0.2
0.2 0.1 0.3
0.2 0.1 0.4
0.2 0.1 0.5
0.2 0.1 0.6
0.2 0.1 0.7
0.2 0.1 0.8
0.2 0.1 0.9
0.2 0.2 0.0
0.2 0.2 0.1
0.2 0.2 0.2
0.2 0.2 0.3
0.2 0.2 0.4
0.2 0.2 0.5
0.2 0.2 0.6
0.2 0.2 0.7
0.2 0.2 0.8
0.2 0.2 0.9
0.2 0.3 0.0
0.2 0.3 0.1
0.2 0.3 0.2
0.2 0.3 0.3
0.2 0.3 0.4
0.2 0.3 0.5
0.2 0.3 0.6
0.2 0.3 0.7
0.2 0.3 0.8
0.2 0.3 0.9
0.2 0.4 0.0
0.2 0.4 0.1
0.2 0.4 0.2
0.2 0.4 0.3
0.2 0.4 0.4
0.2 0.4 0.5
0.2 0.4 0.6
0.2 0.4 0.7
0.2 0.4 0.8
0.2 0.4 0.9
0.2 0.5 0.0
0.2 0.5 0.1
0.2 0.5 0.2
0.2 0.5 0.3
0.2 0.5 0.4
0.2 0.5 0.5
0.2 0.5 0.6
0.2 0.5 0.7
0.2 0.5 0.8
0.2 0.5 0.9
0.2 0.6 0.0
0.2 0.6 0.1
0.2 0.6 0.2
0.2 0.6 0.3
0.2 0.6 0.4
0.2 0.6 0.5
0.2 0.6 0.6
0.2 0.6 0.7
0.2 0.6 0.8
0.2 0.6 0.9
0.2 0.7 0.0
0.2 0.7 0.1
0.2 0.7 0.2
0.2 0.7 0.3
0.2 0.7 0.4
0.2 0.7 0.5
0.2 0.7 0.6
0.2 0.7 0.7
0.2 0.7 0.8
0.2 0.7 0.9
0.2 0.8 0.0
0.2 0.8 0.1
0.2 0.8 0.2
0.2 0.8 0.3
0.2 0.8 0.4
0.2 0.8 0.5
0.2 0.8 0.6
0.2 0.8 0.7
0.2 0.8 0.8
0.2 0.8 0.9
0.2 0.9 0.0
0.2 0.9 0.1
0.2 0.9 0.2
0.2 0.9 0.3
0.2 0.9 0.4
0.2 0.9 0.5
0.2 0.9 0.6
0.2 0.9 0.7
0.2 0.9 0.8
0.2 0.9 0.9
0.3 0.0 0.0
0.3 0.0 0.1
0.3 0.0 0.2
0.3 0.0 0.3
0.3 0.0 0.4
0.3 0.0 0.5
0.3 0.0 0.6
0.3 0.0 0.7
0.3 0.0 0.8
0.3 0.0 0.9
0.3 0.1 0.0
0.3 0.1 0.1
0.3 0.1 0.2
0.3 0.1 0.3
0.3 0.1 0.4
0.3 0.1 0.5
0.3 0.1 0.6
0.3 0.1 0.7
0.3 0.1 0.8
0.3 0.1 0.9
0.3 0.2 0.0
0.3 0.2 0.1
0.3 0.2 0.2
0.3 0.2 0.3
0.3 0.2 0.4
0.3 0.2 0.5
0.3 0.2 0.6
0.3 0.2 0.7
0.3 0.2 0.8
0.3 0.2 0.9
0.3 0.3 0.0
0.3 0.3 0.1
0.3 0.3 0.2
0.3 0.3 0.3
0.3 0.3 0.4
0.3 0.3 0.5
0.3 0.3 0.6
0.3 0.3 0.7
0.3 0.3 0.8
0.3 0.3 0.9
0.3 0.4 0.0
0.3 0.4 0.1
0.3 0.4 0.2
0.3 0.4 0.3
0.3 0.4 0.4
0.3 0.4 0.5
0.3 0.4 0.6
0.3 0.4 0.7
0.3 0.4 0.8
0.3 0.4 0.9
0.3 0.5 0.0
0.3 0.5 0.1
0.3 0.5 0.2
0.3 0.5 0.3
0.3 0.5 0.4
0.3 0.5 0.5
0.3 0.5 0.6
0.3 0.5 0.7
0.3 0.5 0.8
0.3 0.5 0.9
0.3 0.6 0.0
0.3 0.6 0.1
0.3 0.6 0.2
0.3 0.6 0.3
0.3 0.6 0.4
0.3 0.6 0.5
0.3 0.6 0.6
0.3 0.6 0.7
0.3 0.6 0.8
0.3 0.6 0.9
0.3 0.7 0.0
0.3 0.7 0.1
0.3 0.7 0.2
0.3 0.7 0.3
0.3 0.7 0.4
0.3 0.7 0.5
0.3 0.7 0.6
0.3 0.7 0.7
0.3 0.7 0.8
0.3 0.7 0.9
0.3 0.8 0.0
0.3 0.8 0.1
0.3 0.8 0.2
0.3 0.8 0.3
0.3 0.8 0.4
0.3 0.8 0.5
0.3 0.8 0.6
0.3 0.8 0.7
0.3 0.8 0.8
0.3 0.8 0.9
0.3 0.9 0.0
0.3 0.9 0.1
0.3 0.9 0.2
0.3 0.9 0.3
0.3 0.9 0.4
0.3 0.9 0.5
0.3 0.9 0.6
0.3 0.9 0.7
0.3 0.9 0.8
0.3 0.9 0.9
0.4 0.0 0.0
0.4 0.0 0.1
0.4 0.0 0.2
0.4 0.0 0.3
0.4 0.0 0.4
0.4 0.0 0.5
0.4 0.0 0.6
0.4 0.0 0.7
0.4 0.0 0.8
0.4 0.0 0.9
0.4 0.1 0.0
0.4 0.1 0.1
0.4 0.1 0.2
0.4 0.1 0.3
0.4 0.1 0.4
0.4 0.1 0.5
0.4 0.1 0.6
0.4 0.1 0.7
0.4 0.1 0.8
0.4 0.1 0.9
0.4 0.2 0.0
0.4 0.2 0.1
0.4 0.2 0.2
0.4 0.2 0.3
0.4 0.2 0.4
0.4 0.2 0.5
0.4 0.2 0.6
0.4 0.2 0.7
0.4 0.2 0.8
0.4 0.2 0.9
0.4 0.3 0.0
0.4 0.3 0.1
0.4 0.3 0.2
0.4 0.3 0.3
0.4 0.3 0.4
0.4 0.3 0.5
0.4 0.3 0.6
0.4 0.3 0.7
0.4 0.3 0.8
0.4 0.3 0.9
0.4 0.4 0.0
0.4 0.4 0.1
0.4 0.4 0.2
0.4 0.4 0.3
0.4 0.4 0.4
0.4 0.4 0.5
0.4 0.4 0.6
0.4 0.4 0.7
0.4 0.4 0.8
0.4 0.4 0.9
0.4 0.5 0.0
0.4 0.5 0.1
0.4 0.5 0.2
0.4 0.5 0.3
0.4 0.5 0.4
0.4 0.5 0.5
0.4 0.5 0.6
0.4 0.5 0.7
0.4 0.5 0.8
0.4 0.5 0.9
0.4 0.6 0.0
0.4 0.6 0.1
0.4 0.6 0.2
0.4 0.6 0.3
0.4 0.6 0.4
0.4 0.6 0.5
0.4 0.6 0.6
0.4 0.6 0.7
0.4 0.6 0.8
0.4 0.6 0.9
0.4 0.7 0.0
0.4 0.7 0.1
0.4 0.7 0.2
0.4 0.7 0.3
0.4 0.7 0.4
0.4 0.7 0.5
0.4 0.7 0.6
0.4 0.7 0.7
0.4 0.7 0.8
0.4 0.7 0.9
0.4 0.8 0.0
0.4 0.8 0.1
0.4 0.8 0.2
0.4 0.8 0.3
0.4 0.8 0.4
0.4 0.8 0.5
0.4 0.8 0.6
0.4 0.8 0.7
0.4 0.8 0.8
0.4 0.8 0.9
0.4 0.9 0.0
0.4 0.9 0.1
0.4 0.9 0.2
0.4 0.9 0.3
0.4 0.9 0.4
0.4 0.9 0.5
0.4 0.9 0.6
0.4 0.9 0.7
0.4 0.9 0.8
0.4 0.9 0.9
0.5 0.0 0.0
0.5 0.0 0.1
0.5 0.0 0.2
0.5 0.0 0.3
0.5 0.0 0.4
0.5 0.0 0.5
0.5 0.0 0.6
0.5 0.0 0.7
0.5 0.0 0.8
0.5 0.0 0.9
0.5 0.1 0.0
0.5 0.1 0.1
0.5 0.1 0.2
0.5 0.1 0.3
0.5 0.1 0.4
0.5 0.1 0.5
0.5 0.1 0.6
0.5 0.1 0.7
0.5 0.1 0.8
0.5 0.1 0.9
0.5 0.2 0.0
0.5 0.2 0.1
0.5 0.2 0.2
0.5 0.2 0.3
0.5 0.2 0.4
0.5 0.2 0.5
0.5 0.2 0.6
0.5 0.2 0.7
0.5 0.2 0.8
0.5 0.2 0.9
0.5 0.3 0.0
0.5 0.3 0.1
0.5 0.3 0.2
0.5 0.3 0.3
0.5 0.3 0.4
0.5 0.3 0.5
0.5 0.3 0.6
0.5 0.3 0.7
0.5 0.3 0.8
0.5 0.3 0.9
0.5 0.4 0.0
0.5 0.4 0.1
0.5 0.4 0.2
0.5 0.4 0.3
0.5 0.4 0.4
0.5 0.4 0.5
0.5 0.4 0.6
0.5 0.4 0.7
0.5 0.4 0.8
0.5 0.4 0.9
0.5 0.5 0.0
0.5 0.5 0.1
0.5 0.5 0.2
0.5 0.5 0.3
0.5 0.5 0.4
0.5 0.5 0.5
0.5 0.5 0.6
0.5 0.5 0.7
0.5 0.5 0.8
0.5 0.5 0.9
0.5 0.6 0.0
0.5 0.6 0.1
0.5 0.6 0.2
0.5 0.6 0.3
0.5 0.6 0.4
0.5 0.6 0.5
0.5 0.6 0.6
0.5 0.6 0.7
0.5 0.6 0.8
0.5 0.6 0.9
0.5 0.7 0.0
0.5 0.7 0.1
0.5 0.7 0.2
0.5 0.7 0.3
0.5 0.7 0.4
0.5 0.7 0.5
0.5 0.7 0.6
0.5 0.7 0.7
0.5 0.7 0.8
0.5 0.7 0.9
0.5 0.8 0.0
0.5 0.8 0.1
0.5 0.8 0.2
0.5 0.8 0.3
0.5 0.8 0.4
0.5 0.8 0.5
0.5 0.8 0.6
0.5 0.8 0.7
0.5 0.8 0.8
0.5 0.8 0.9
0.5 0.9 0.0
0.5 0.9 0.1
0.5 0.9 0.2
0.5 0.9 0.3
0.5 0.9 0.4
0.5 0.9 0.5
0.5 0.9 0.6
0.5 0.9 0.7
0.5 0.9 0.8
0.5 0.9 0.9
0.6 0.0 0.0
0.6 0.0 0.1
0.6 0.0 0.2
0.6 0.0 0.3
0.6 0.0 0.4
0.6 0.0 0.5
0.6 0.0 0.6
0.6 0.0 0.7
0.6 0.0 0.8
0.6 0.0 0.9
0.6 0.1 0.0
0.6 0.1 0.1
0.6 0.1 0.2
0.6 0.1 0.3
0.6 0.1 0.4
0.6 0.1 0.5
0.6 0.1 0.6
0.6 0.1 0.7
0.6 0.1 0.8
0.6 0.1 0.9
0.6 0.2 0.0
0.6 0.2 0.1
0.6 0.2 0.2
0.6 0.2 0.3
0.6 0.2 0.4
0.6 0.2 0.5
0.6 0.2 0.6
0.6 0.2 0.7
0.6 0.2 0.8
0.6 0.2 0.9
0.6 0.3 0.0
0.6 0.3 0.1
0.6 0.3 0.2
0.6 0.3 0.3
0.6 0.3 0.4
0.6 0.3 0.5
0.6 0.3 0.6
0.6 0.3 0.7
0.6 0.3 0.8
0.6 0.3 0.9
0.6 0.4 0.0
0.6 0.4 0.1
0.6 0.4 0.2
0.6 0.4 0.3
0.6 0.4 0.4
0.6 0.4 0.5
0.6 0.4 0.6
0.6 0.4 0.7
0.6 0.4 0.8
0.6 0.4 0.9
0.6 0.5 0.0
0.6 0.5 0.1
0.6 0.5 0.2
0.6 0.5 0.3
0.6 0.5 0.4
0.6 0.5 0.5
0.6 0.5 0.6
0.6 0.5 0.7
0.6 0.5 0.8
0.6 0.5 0.9
0.6 0.6 0.0
0.6 0.6 0.1
0.6 0.6 0.2
0.6 0.6 0.3
0.6 0.6 0.4
0.6 0.6 0.5
0.6 0.6 0.6
0.6 0.6 0.7
0.6 0.6 0.8
0.6 0.6 0.9
0.6 0.7 0.0
0.6 0.7 0.1
0.6 0.7 0.2
0.6 0.7 0.3
0.6 0.7 0.4
0.6 0.7 0.5
0.6 0.7 0.6
0.6 0.7 0.7
0.6 0.7 0.8
0.6 0.7 0.9
0.6 0.8 0.0
0.6 0.8 0.1
0.6 0.8 0.2
0.6 0.8 0.3
0.6 0.8 0.4
0.6 0.8 0.5
0.6 0.8 0.6
0.6 0.8 0.7
0.6 0.8 0.8
0.6 0.8 0.9
0.6 0.9 0.0
0.6 0.9 0.1
0.6 0.9 0.2
0.6 0.9 0.3
0.6 0.9 0.4
0.6 0.9 0.5
0.6 0.9 0.6
0.6 0.9 0.7
0.6 0.9 0.8
0.6 0.9 0.9
0.7 0.0 0.0
0.7 0.0 0.1
0.7 0.0 0.2
0.7 0.0 0.3
0.7 0.0 0.4
0.7 0.0 0.5
0.7 0.0 0.6
0.7 0.0 0.7
0.7 0.0 0.8
0.7 0.0 0.9
0.7 0.1 0.0
0.7 0.1 0.1
0.7 0.1 0.2
0.7 0.1 0.3
0.7 0.1 0.4
0.7 0.1 0.5
0.7 0.1 0.6
0.7 0.1 0.7
0.7 0.1 0.8
0.7 0.1 0.9
0.7 0.2 0.0
0.7 0.2 0.1
0.7 0.2 0.2
0.7 0.2 0.3
0.7 0.2 0.4
0.7 0.2 0.5
0.7 0.2 0.6
0.7 0.2 0.7
0.7 0.2 0.8
0.7 0.2 0.9
0.7 0.3 0.0
0.7 0.3 0.1
0.7 0.3 0.2
0.7 0.3 0.3
0.7 0.3 0.4
0.7 0.3 0.5
0.7 0.3 0.6
0.7 0.3 0.7
0.7 0.3 0.8
0.7 0.3 0.9
0.7 0.4 0.0
0.7 0.4 0.1
0.7 0.4 0.2
0.7 0.4 0.3
0.7 0.4 0.4
0.7 0.4 0.5
0.7 0.4 0.6
0.7 0.4 0.7
0.7 0.4 0.8
0.7 0.4 0.9
0.7 0.5 0.0
0.7 0.5 0.1
0.7 0.5 0.2
0.7 0.5 0.3
0.7 0.5 0.4
0.7 0.5 0.5
0.7 0.5 0.6
0.7 0.5 0.7
0.7 0.5 0.8
0.7 0.5 0.9
0.7 0.6 0.0
0.7 0.6 0.1
0.7 0.6 0.2
0.7 0.6 0.3
0.7 0.6 0.4
0.7 0.6 0.5
0.7 0.6 0.6
0.7 0.6 0.7
0.7 0.6 0.8
0.7 0.6 0.9
0.7 0.7 0.0
0.7 0.7 0.1
0.7 0.7 0.2
0.7 0.7 0.3
0.7 0.7 0.4
0.7 0.7 0.5
0.7 0.7 0.6
0.7 0.7 0.7
0.7 0.7 0.8
0.7 0.7 0.9
0.7 0.8 0.0
0.7 0.8 0.1
0.7 0.8 0.2
0.7 0.8 0.3
0.7 0.8 0.4
0.7 0.8 0.5
0.7 0.8 0.6
0.7 0.8 0.7
0.7 0.8 0.8
0.7 0.8 0.9
0.7 0.9 0.0
0.7 0.9 0.1
0.7 0.9 0.2
0.7 0.9 0.3
0.7 0.9 0.4
0.7 0.9 0.5
0.7 0.9 0.6
0.7 0.9 0.7
0.7 0.9 0.8
0.7 0.9 0.9
0.8 0.0 0.0
0.8 0.0 0.1
0.8 0.0 0.2
0.8 0.0 0.3
0.8 0.0 0.4
0.8 0.0 0.5
0.8 0.0 0.6
0.8 0.0 0.7
0.8 0.0 0.8
0.8 0.0 0.9
0.8 0.1 0.0
0.8 0.1 0.1
0.8 0.1 0.2
0.8 0.1 0.3
0.8 0.1 0.4
0.8 0.1 0.5
0.8 0.1 0.6
0.8 0.1 0.7
0.8 0.1 0.8
0.8 0.1 0.9
0.8 0.2 0.0
0.8 0.2 0.1
0.8 0.2 0.2
0.8 0.2 0.3
0.8 0.2 0.4
0.8 0.2 0.5
0.8 0.2 0.6
0.8 0.2 0.7
0.8 0.2 0.8
0.8 0.2 0.9
0.8 0.3 0.0
0.8 0.3 0.1
0.8 0.3 0.2
0.8 0.3 0.3
0.8 0.3 0.4
0.8 0.3 0.5
0.8 0.3 0.6
0.8 0.3 0.7
0.8 0.3 0.8
0.8 0.3 0.9
0.8 0.4 0.0
0.8 0.4 0.1
0.8 0.4 0.2
0.8 0.4 0.3
0.8 0.4 0.4
0.8 0.4 0.5
0.8 0.4 0.6
0.8 0.4 0.7
0.8 0.4 0.8
0.8 0.4 0.9
0.8 0.5 0.0
0.8 0.5 0.1
0.8 0.5 0.2
0.8 0.5 0.3
0.8 0.5 0.4
0.8 0.5 0.5
0.8 0.5 0.6
0.8 0.5 0.7
0.8 0.5 0.8
0.8 0.5 0.9
0.8 0.6 0.0
0.8 0.6 0.1
0.8 0.6 0.2
0.8 0.6 0.3
0.8 0.6 0.4
0.8 0.6 0.5
0.8 0.6 0.6
0.8 0.6 0.7
0.8 0.6 0.8
0.8 0.6 0.9
0.8 0.7 0.0
0.8 0.7 0.1
0.8 0.7 0.2
0.8 0.7 0.3
0.8 0.7 0.4
0.8 0.7 0.5
0.8 0.7 0.6
0.8 0.7 0.7
0.8 0.7 0.8
0.8 0.7 0.9
0.8 0.8 0.0
0.8 0.8 0.1
0.8 0.8 0.2
0.8 0.8 0.3
0.8 0.8 0.4
0.8 0.8 0.5
0.8 0.8 0.6
0.8 0.8 0.7
0.8 0.8 0.8
0.8 0.8 0.9
0.8 0.9 0.0
0.8 0.9 0.1
0.8 0.9 0.2
0.8 0.9 0.3
0.8 0.9 0.4
0.8 0.9 0.5
0.8 0.9 0.6
0.8 0.9 0.7
0.8 0.9 0.8
0.8 0.9 0.9
0.9 0.0 0.0
0.9 0.0 0.1
0.9 0.0 0.2
0.9 0.0 0.3
0.9 0.0 0.4
0.9 0.0 0.5
0.9 0.0 0.6
0.9 0.0 0.7
0.9 0.0 0.8
0.9 0.0 0.9
0.9 0.1 0.0
0.9 0.1 0.1
0.9 0.1 0.2
0.9 0.1 0.3
0.9 0.1 0.4
0.9 0.1 0.5
0.9 0.1 0.6
0.9 0.1 0.7
0.9 0.1 0.8
0.9 0.1 0.9
0.9 0.2 0.0
0.9 0.2 0.1
0.9 0.2 0.2
0.9 0.2 0.3
0.9 0.2 0.4
0.9 0.2 0.5
0.9 0.2 0.6
0.9 0.2 0.7
0.9 0.2 0.8
0.9 0.2 0.9
0.9 0.3 0.0
0.9 0.3 0.1
0.9 0.3 0.2
0.9 0.3 0.3
0.9 0.3 0.4
0.9 0.3 0.5
0.9 0.3 0.6
0.9 0.3 0.7
0.9 0.3 0.8
0.9 0.3 0.9
0.9 0.4 0.0
0.9 0.4 0.1
0.9 0.4 0.2
0.9 0.4 0.3
0.9 0.4 0.4
0.9 0.4 0.5
0.9 0.4 0.6
0.9 0.4 0.7
0.9 0.4 0.8
0.9 0.4 0.9
0.9 0.5 0.0
0.9 0.5 0.1
0.9 0.5 0.2
0.9 0.5 0.3
0.9 0.5 0.4
0.9 0.5 0.5
0.9 0.5 0.6
0.9 0.5 0.7
0.9 0.5 0.8
0.9 0.5 0.9
0.9 0.6 0.0
0.9 0.6 0.1
0.9 0.6 0.2
0.9 0.6 0.3
0.9 0.6 0.4
0.9 0.6 0.5
0.9 0.6 0.6
0.9 0.6 0.7
0.9 0.6 0.8
0.9 0.6 0.9
0.9 0.7 0.0
0.9 0.7 0.1
0.9 0.7 0.2
0.9 0.7 0.3
0.9 0.7 0.4
0.9 0.7 0.5
0.9 0.7 0.6
0.9 0.7 0.7
0.9 0.7 0.8
0.9 0.7 0.9
0.9 0.8 0.0
0.9 0.8 0.1
0.9 0.8 0.2
0.9 0.8 0.3
0.9 0.8 0.4
0.9 0.8 0.5
0.9 0.8 0.6
0.9 0.8 0.7
0.9 0.8 0.8
0.9 0.8 0.9
0.9 0.9 0.0
0.9 0.9 0.1
0.9 0.9 0.2
0.9 0.9 0.3
0.9 0.9 0.4
0.9 0.9 0.5
0.9 0.9 0.6
0.9 0.9 0.7
0.9 0.9 0.8
0.9 0.9 0.9
end kpoints


###############
