&CONTROL
  calculation = 'relax'
  etot_conv_thr = 1.4d-04
  forc_conv_thr = 1.0d-04
  pseudo_dir = '/home/hafidz/Documents/DFT/Pseudopotential/rrkjus'
  outdir = '/home/hafidz/Documents/PKL/Kalkulasi-DFT/Project-Shift-Current-Multi-Weyl-Semimetal/Cr2HgSe4/Primitive-2/outdir'
  prefix = 'Cr2HgSe4-SC-Project-2'
  verbosity = 'low'
/
&SYSTEM
  ibrav = 0
  nat = 14
  ntyp = 3
  ecutwfc = 50.0
  ecutrho = 320.0
  occupations = 'smearing'
  smearing = 'cold'
  degauss = 0.1
  nspin = 2
  starting_magnetization(1) = 0.1
  nbnd = 120
/
&ELECTRONS
  conv_thr = 2.8d-07
  electron_maxstep = 80
  mixing_beta = 0.4
  
/
&IONS
  ion_dynamics = 'bfgs '
/
ATOMIC_SPECIES
Cr 51.9961 Cr.pbe-spn-rrkjus_psl.1.0.0.UPF
Hg 200.592 Hg.pbe-spn-rrkjus_psl.1.0.0.UPF
Se 78.971  Se.pbe-n-rrkjus_psl.1.0.0.UPF
ATOMIC_POSITIONS crystal
Cr 0.875000 0.375000 0.375000
Cr 0.375000 0.375000 0.875000
Cr 0.375000 0.375000 0.375000
Cr 0.375000 0.875000 0.375000
Hg 0.000000 0.000000 0.000000
Hg 0.750000 0.750000 0.750000
Se 0.575041 0.141653 0.141653
Se 0.141653 0.141653 0.575041
Se 0.174959 0.608347 0.608347
Se 0.141653 0.575041 0.141653
Se 0.141653 0.141653 0.141653
Se 0.608347 0.174959 0.608347
Se 0.608347 0.608347 0.608347
Se 0.608347 0.608347 0.174959
K_POINTS automatic
5 5 5 0 0 0
CELL_PARAMETERS angstrom
 2.226296 6.296917 3.856058
 2.226296 6.296917 -3.856058
-4.452593 6.296917 0.000000

