&CONTROL
  calculation = 'scf'
  restart_mode    = 'from_scratch'
  pseudo_dir = '/home/hafidz/Documents/DFT/Pseudopotential/rrkjus'
  outdir = '/home/hafidz/Documents/PKL/Kalkulasi-DFT/Project-Shift-Current-Multi-Weyl-Semimetal/Cr2HgSe4/Primitive-3/outdir'
  prefix = 'Cr2HgSe4-SC-Project-3'
  verbosity = 'low'
/
&SYSTEM
   ibrav           =   14
   celldm(1)       =   14.3538692556270639
   celldm(2)       =   1.0000000000000000
   celldm(3)       =   1.0000000000000002
   celldm(4)       =   0.5000000000000001
   celldm(5)       =   0.5000000000000001
   celldm(6)       =   0.5000000000000001
   nat             =   14
   ntyp            =   3
   ecutwfc         =   80.00000000
   ecutrho         =   416.00000000
   occupations     =  'smearing'  
   smearing        =  'f-d' 
   degauss         =  1.00000000e-03  
   noncolin        =  .true. 
   lspinorb        =  .true. 
   starting_magnetization(1) = 0.1
   nbnd = 152
&ELECTRONS
   conv_thr        =        1.00000000e-08 
   mixing_beta     =        7.00000000e-01    
/
ATOMIC_SPECIES
Cr 51.9961 Cr.pbe-spn-rrkjus_psl.1.0.0.UPF
Hg 200.592 Hg.pbe-spn-rrkjus_psl.1.0.0.UPF
Se 78.971  Se.pbe-n-rrkjus_psl.1.0.0.UPF
ATOMIC_POSITIONS crystal
Cr 0.875000 0.375000 0.375000
Cr 0.375000 0.375000 0.875000
Cr 0.375000 0.375000 0.375000
Cr 0.375000 0.875000 0.375000
Hg 0.000000 0.000000 0.000000
Hg 0.750000 0.750000 0.750000
Se 0.575041 0.141653 0.141653
Se 0.141653 0.141653 0.575041
Se 0.174959 0.608347 0.608347
Se 0.141653 0.575041 0.141653
Se 0.141653 0.141653 0.141653
Se 0.608347 0.174959 0.608347
Se 0.608347 0.608347 0.608347
Se 0.608347 0.608347 0.174959
K_POINTS automatic
5 5 5 0 0 0

